\ENCODING=ISO-8859-1
\Problem name: 

Minimize
 obj: VAR1 + VAR2 + 0.0225 VAR3 + 0.3 VAR5
Subject To
 c1: - 2 VAR1 - 3 VAR2 - 4 VAR3 + 0.3 VAR5 - 5 VAR4 >= -5
 c2: - 6 VAR1 - VAR2 - 3 VAR3 - 2 VAR4 - 0.3 VAR6 >= -10
Bounds
 0 <= VAR1 <= 1
 0 <= VAR2 <= 1
 0 <= VAR3 <= 1
 0 <= VAR5 <= 1
 0 <= VAR4 <= 1
 0 <= VAR6 <= 1
End
